# Solution for model iteration_329
# Objective value = 1.5584017933943858e+02
0 0
1 0.001
3 2.6010000000000022e+00
5 0.001
6 1.001
7 0.001
9 4.0010000000000030e+00
11 3.1202000000000009e+01
13 3.3138502891135367e+01
15 2.8549004318226743e+01
16 2.9549004318226743e+01
17 4.8002000000000010e+01
18 4.9002000000000010e+01
19 2.9550004318226744e+01
21 4.9003000000000007e+01
23 7.5203000000000017e+01
24 7.6203000000000017e+01
25 4.8221991543082936e+01
26 4.9221991543082936e+01
27 7.5203000000000017e+01
28 7.6203000000000017e+01
29 7.5203000000000017e+01
30 7.6203000000000017e+01
31 4.9222991543082934e+01
33 7.6204000000000022e+01
35 9.3004000000000019e+01
37 6.8786983097055568e+01
38 6.9786983097055568e+01
39 6.9683866194105320e+01
40 7.0683866194105320e+01
41 7.0684866194105325e+01
43 6.9787983097055573e+01
44 7.0787983097055573e+01
45 1.0480500000000002e+02
46 1.0580500000000002e+02
47 1.0480500000000002e+02
48 1.0580500000000002e+02
49 7.0788983097055578e+01
51 1.0580600000000003e+02
53 1.4320700000000005e+02
54 1.4420700000000005e+02
55 1.0009404528763825e+02
57 1.2197602144289095e+02
58 1.2297602144289095e+02
59 1.2210242677368146e+02
60 1.2310242677368146e+02
61 1.2310342677368146e+02
63 1.4288746434239729e+02
64 1.4388746434239729e+02
65 1.4388846434239730e+02
67 1.6373027459520858e+02
68 1.6473027459520858e+02
69 1.5226827487653949e+02
71 1.6473216823513644e+02
73 1.7273433481550921e+02
74 1.7373433481550921e+02
75 1.8457397848794770e+02
76 1.8557397848794770e+02
77 1.7373533481550922e+02
79 1.8557587212787561e+02
81 2.0377555942388693e+02
83 2.0303266758773265e+02
85 2.3496253692656660e+02
86 2.3596253692656660e+02
87 2.3596353692656660e+02
89 2.6964148079978941e+02
90 2.7064148079978941e+02
91 2.7064248079978938e+02
93 2.7950080429289255e+02
94 2.8050080429289255e+02
95 2.8050180429289253e+02
97 2.9991407596224786e+02
98 3.0091407596224786e+02
99 3.1464348079978936e+02
101 3.0091507596224784e+02
102 3.0191507596224784e+02
103 3.0191607596224782e+02
105 4.1144448079978940e+02
107 3.6927501514665158e+02
109 4.5544548079978938e+02
110 4.5644548079978938e+02
111 4.5644648079978936e+02
113 3.8800275603907795e+02
114 3.8900275603907795e+02
115 3.8900375603907793e+02
117 4.0633133052651010e+02
119 5.0044748079978933e+02
120 5.0144748079978933e+02
121 4.3494404857023682e+02
122 4.3594404857023682e+02
123 4.3594504857023679e+02
125 4.6473489746553855e+02
126 4.6573489746553855e+02
127 4.6573589746553853e+02
129 5.1384417933943860e+02
130 5.1484417933943860e+02
131 5.1484517933943857e+02
c(0,131)_ru 1.5584017933943858e+02
lambda[0] 0
lambda[1] 0
lambda[2] 0
lambda[3] 0
lambda[4] 0
lambda[5] 0
lambda[6] 0
lambda[7] 0
lambda[8] 0
lambda[9] 0
lambda[10] 0
lambda[11] 0
lambda[12] 0
lambda[13] 0
lambda[14] 0
lambda[15] 0
lambda[16] 0
lambda[17] 0
lambda[18] 0
lambda[19] 0
lambda[20] 0
lambda[21] 0
lambda[22] 0
lambda[23] 0
lambda[24] 0
lambda[25] 0
lambda[26] 0
lambda[27] 0
lambda[28] 0
lambda[29] 0
lambda[30] 0
lambda[31] 0
lambda[32] 0
lambda[33] 0
lambda[34] 0
lambda[35] 0
lambda[36] 0
lambda[37] 0
lambda[38] 0
lambda[39] 0
lambda[40] 0
lambda[41] 0
lambda[42] 0
lambda[43] 0
lambda[44] 0
lambda[45] 0
lambda[46] 0
lambda[47] 0
lambda[48] 0
lambda[49] 0
lambda[50] 0
lambda[51] 0
lambda[52] 0
lambda[53] 0
lambda[54] 0
lambda[55] 0
lambda[56] 0
lambda[57] 0
lambda[58] 0
lambda[59] 0
lambda[60] 0
lambda[61] 0
lambda[62] 0
lambda[63] 0
lambda[64] 0
lambda[65] 0
lambda[66] 0
lambda[67] 0
lambda[68] 0
lambda[69] 0
lambda[70] 0
lambda[71] 0
lambda[72] 0
lambda[73] 0
lambda[74] 0
lambda[75] 0
lambda[76] 0
lambda[77] 0
lambda[78] 0
lambda[79] 0
lambda[80] 0
lambda[81] 0
lambda[82] 0
lambda[83] 0
lambda[84] 0
lambda[85] 0
lambda[86] 0
lambda[87] 0
lambda[88] 0
lambda[89] 0
lambda[90] 0
lambda[91] 0
lambda[92] 0
lambda[93] 0
lambda[94] 0
lambda[95] 0
lambda[96] 0
lambda[97] 0
lambda[98] 0
lambda[99] 0
lambda[100] 0
lambda[101] 0
lambda[102] 0
lambda[103] 0
lambda[104] 0
lambda[105] 0
lambda[106] 0
lambda[107] 0
lambda[108] 0
lambda[109] 0
lambda[110] 0
lambda[111] 0
lambda[112] 0
lambda[113] 0
lambda[114] 0
lambda[115] 0
lambda[116] 0
lambda[117] 0
lambda[118] 0
lambda[119] 0
lambda[120] 0
lambda[121] 0
lambda[122] 0
lambda[123] 0
lambda[124] 0
lambda[125] 0
lambda[126] 0
lambda[127] 0
lambda[128] 0
lambda[129] 0
lambda[130] 0
lambda[131] 0
lambda[132] 0
lambda[133] 0
lambda[134] 0
lambda[135] 0
lambda[136] 0
lambda[137] 0
lambda[138] 0
lambda[139] 0
lambda[140] 0
lambda[141] 0
lambda[142] 0
lambda[143] 0
lambda[144] 0
lambda[145] 0
lambda[146] 0
lambda[147] 0
lambda[148] 0
lambda[149] 0
lambda[150] 0
lambda[151] 0
lambda[152] 0
lambda[153] 0
lambda[154] 0
lambda[155] 0
lambda[156] 0
lambda[157] 0
lambda[158] 0
lambda[159] 0
lambda[160] 0
lambda[161] 0
lambda[162] 0
lambda[163] 0
lambda[164] 0
lambda[165] 0
lambda[166] 0
lambda[167] 0
lambda[168] 0
lambda[169] 0
lambda[170] 0
lambda[171] 0
lambda[172] 0
lambda[173] 0
lambda[174] 0
lambda[175] 0
lambda[176] 0
lambda[177] 0
lambda[178] 0
lambda[179] 0
lambda[180] 0
lambda[181] 0
lambda[182] 0
lambda[183] 0
lambda[184] 0
lambda[185] 0
lambda[186] 0
lambda[187] 0
lambda[188] 0
lambda[189] 0
lambda[190] 0
lambda[191] 0
lambda[192] 0
lambda[193] 0
lambda[194] 0
lambda[195] 0
lambda[196] 0
lambda[197] 0
lambda[198] 0
lambda[199] 0
lambda[200] 0
lambda[201] 0
lambda[202] 0
lambda[203] 0
lambda[204] 0
lambda[205] 0
lambda[206] 0
lambda[207] 0
lambda[208] 0
lambda[209] 0
lambda[210] 0
lambda[211] 0
lambda[212] 0
lambda[213] 0
lambda[214] 0
lambda[215] 0
lambda[216] 0
lambda[217] 0
lambda[218] 0
lambda[219] 0
lambda[220] 0
lambda[221] 0
lambda[222] 0
lambda[223] 0
lambda[224] 0
lambda[225] 0
lambda[226] 0
lambda[227] 0
lambda[228] 0
lambda[229] 0
lambda[230] 0
lambda[231] 0
lambda[232] 0
lambda[233] 0
lambda[234] 0
lambda[235] 0
lambda[236] 0
lambda[237] 0
lambda[238] 0
lambda[239] 0
lambda[240] 0
lambda[241] 0
lambda[242] 0
lambda[243] 0
lambda[244] 0
lambda[245] 0
lambda[246] 0
lambda[247] 0
lambda[248] 0
lambda[249] 0
lambda[250] 0
lambda[251] 0
lambda[252] 0
lambda[253] 0
lambda[254] 0
lambda[255] 0
lambda[256] 0
lambda[257] 0
lambda[258] 0
lambda[259] 0
lambda[260] 0
lambda[261] 0
lambda[262] 0
lambda[263] 0
lambda[264] 0
lambda[265] 0
lambda[266] 0
lambda[267] 0
lambda[268] 0
lambda[269] 0
lambda[270] 0
lambda[271] 0
lambda[272] 0
lambda[273] 0
lambda[274] 0
lambda[275] 0
lambda[276] 0
lambda[277] 0
lambda[278] 0
lambda[279] 0
lambda[280] 0
lambda[281] 0
lambda[282] 0
lambda[283] 0
lambda[284] 0
lambda[285] 0
lambda[286] 0
lambda[287] 0
lambda[288] 0
lambda[289] 0
lambda[290] 0
lambda[291] 0
lambda[292] 0
lambda[293] 0
lambda[294] 0
lambda[295] 0
lambda[296] 0
lambda[297] 1.3764938994650769e-02
lambda[298] 0
lambda[299] 0
lambda[300] 0
lambda[301] 0
lambda[302] 0
lambda[303] 0
lambda[304] 1.2094070082101518e-02
lambda[305] 0
lambda[306] 0
lambda[307] 0
lambda[308] 0
lambda[309] 0
lambda[310] 0
lambda[311] 0
lambda[312] 0
lambda[313] 0
lambda[314] 0
lambda[315] 0
lambda[316] 0
lambda[317] 0
lambda[318] 3.5963094611768553e-02
lambda[319] 0
lambda[320] 1.3470769119764716e-02
lambda[321] 8.6316424767255751e-01
lambda[322] 3.8469061415186960e-02
lambda[323] 0
lambda[324] 0
lambda[325] 0
lambda[326] 0
lambda[327] 0
lambda[328] 2.3073818103970033e-02
phi[0] 2.8768207245178096e-01
